Academic license - for non-commercial use only
Read LP format model from file /tmp/tmpk9a3kh8q.pyomo.lp
Reading time = 1.98 seconds
x1051207: 1051203 rows, 700807 columns, 2585285 nonzeros
Read MIP start from file /tmp/tmprv4mbp4i.gurobi.mst
Changed value of parameter mipgap to 0.06
   Prev: 0.0001  Min: 0.0  Max: 1e+100  Default: 0.0001
Optimize a model with 1051203 rows, 700807 columns and 2585285 nonzeros
Variable types: 525605 continuous, 175202 integer (0 binary)
Coefficient statistics:
  Matrix range     [1e-03, 3e+01]
  Objective range  [6e-03, 5e+04]
  Bounds range     [2e+00, 2e+02]
  RHS range        [1e+00, 5e+01]

MIP start produced solution with objective 255241 (182.85s)
Loaded MIP start with objective 255241
Processed MIP start in 182.99 seconds

Presolve removed 13 rows and 16 columns
Presolve time: 2.37s
Presolved: 1051190 rows, 700791 columns, 2585277 nonzeros
Variable types: 525589 continuous, 175202 integer (0 binary)

Deterministic concurrent LP optimizer: primal simplex, dual simplex, and barrier
Showing barrier log only...

Presolve removed 350400 rows and 175200 columns
Presolved: 700790 rows, 525591 columns, 1884477 nonzeros

Root barrier log...

Ordering time: 0.00s

Barrier statistics:
 Dense cols : 4
 AA' NZ     : 1.709e+06
 Factor NZ  : 6.657e+06 (roughly 500 MBytes of memory)
 Factor Ops : 6.693e+07 (less than 1 second per iteration)
 Threads    : 4

                  Objective                Residual
Iter       Primal          Dual         Primal    Dual     Compl     Time
   0   2.62011457e+06 -1.14624362e+09  6.53e+00 4.31e-01  1.87e+03   189s
   1   1.81071352e+06 -3.65454095e+08  3.77e+00 1.52e+01  3.69e+02   191s
   2   1.64104270e+06 -1.22877110e+08  2.27e+00 1.67e+00  1.17e+02   193s
   3   1.35403710e+06 -1.69138553e+07  1.41e+00 4.77e-09  1.40e+01   195s
   4   1.06506006e+06 -1.49890374e+06  2.45e-01 5.81e-10  1.68e+00   197s
   5   5.52952131e+05 -1.15121224e+06  1.01e-02 2.62e-10  1.08e+00   198s
   6   4.62868420e+05 -4.48014027e+04  6.22e-03 3.01e-10  3.22e-01   200s
   7   3.65944373e+05  6.40297434e+04  3.91e-03 1.33e-10  1.91e-01   201s
   8   3.32854948e+05  1.47684579e+05  3.14e-03 2.47e-10  1.17e-01   203s
   9   3.27658848e+05  1.69202933e+05  3.02e-03 8.91e-11  1.00e-01   205s
  10   3.18632580e+05  2.14243438e+05  2.47e-03 9.62e-10  6.61e-02   207s
  11   2.72908985e+05  2.27253632e+05  9.47e-04 4.09e-10  2.89e-02   209s
  12   2.62810070e+05  2.31939402e+05  6.48e-04 5.46e-12  1.96e-02   210s
  13   2.58806097e+05  2.35164784e+05  5.30e-04 1.00e-10  1.50e-02   212s
  14   2.54401967e+05  2.36212736e+05  4.02e-04 7.46e-11  1.15e-02   213s
  15   2.52458339e+05  2.36918455e+05  3.52e-04 1.40e-10  9.84e-03   215s
  16   2.50685349e+05  2.38105697e+05  2.99e-04 5.14e-10  7.97e-03   216s
  17   2.47982640e+05  2.38997536e+05  2.22e-04 3.62e-10  5.69e-03   218s
  18   2.46156721e+05  2.39506999e+05  1.71e-04 2.08e-09  4.21e-03   220s
  19   2.44979171e+05  2.39765386e+05  1.39e-04 1.35e-09  3.30e-03   222s
  20   2.44583641e+05  2.39904017e+05  1.26e-04 2.60e-09  2.96e-03   223s
  21   2.43997072e+05  2.40066203e+05  1.07e-04 1.91e-09  2.49e-03   225s
  22   2.43551576e+05  2.40200471e+05  9.21e-05 2.48e-09  2.12e-03   226s
  23   2.42888629e+05  2.40336501e+05  7.19e-05 2.51e-09  1.62e-03   228s
  24   2.42432176e+05  2.40426846e+05  5.82e-05 8.35e-09  1.27e-03   231s
  25   2.42135323e+05  2.40451137e+05  4.96e-05 1.79e-08  1.07e-03   233s
  26   2.42052589e+05  2.40477583e+05  4.68e-05 2.47e-08  9.97e-04   234s
  27   2.41865419e+05  2.40504360e+05  4.04e-05 3.35e-08  8.62e-04   235s
  28   2.41781444e+05  2.40535376e+05  3.76e-05 4.36e-08  7.89e-04   237s
  29   2.41523490e+05  2.40561882e+05  2.94e-05 5.55e-08  6.09e-04   238s
  30   2.41476119e+05  2.40569579e+05  2.78e-05 5.94e-08  5.74e-04   240s
  31   2.41315612e+05  2.40589456e+05  2.27e-05 1.29e-07  4.60e-04   242s
  32   2.41192237e+05  2.40599643e+05  1.90e-05 1.58e-07  3.75e-04   244s
  33   2.41132563e+05  2.40603100e+05  1.70e-05 1.72e-07  3.35e-04   246s
  34   2.41112063e+05  2.40608098e+05  1.63e-05 1.77e-07  3.19e-04   247s
  35   2.41053064e+05  2.40613216e+05  1.42e-05 1.97e-07  2.78e-04   249s
  36   2.41007622e+05  2.40617110e+05  1.26e-05 3.18e-07  2.47e-04   250s
  37   2.40923367e+05  2.40621820e+05  1.10e-05 4.98e-07  1.91e-04   252s
  38   2.40880427e+05  2.40624935e+05  1.00e-05 7.65e-07  1.62e-04   255s
  39   2.40840714e+05  2.40626662e+05  7.47e-06 1.03e-06  1.35e-04   256s
  40   2.40829921e+05  2.40627835e+05  7.47e-06 1.24e-06  1.28e-04   258s
  41   2.40808177e+05  2.40628281e+05  6.27e-06 1.70e-06  1.14e-04   259s
  42   2.40792297e+05  2.40629499e+05  5.68e-06 3.90e-06  1.03e-04   261s
  43   2.40770292e+05  2.40631040e+05  4.97e-06 6.61e-06  8.81e-05   263s
  44   2.40742818e+05  2.40631848e+05  4.02e-06 7.66e-06  7.02e-05   265s
  45   2.40729689e+05  2.40632166e+05  3.58e-06 7.71e-06  6.17e-05   267s
  46   2.40723089e+05  2.40632476e+05  3.74e-06 7.52e-06  5.74e-05   268s
  47   2.40714523e+05  2.40632641e+05  3.00e-06 7.85e-06  5.18e-05   270s
  48   2.40710144e+05  2.40632868e+05  2.83e-06 7.52e-06  4.89e-05   271s
  49   2.40697224e+05  2.40633453e+05  2.38e-06 8.19e-06  4.04e-05   273s
  50   2.40689430e+05  2.40633600e+05  2.08e-06 8.22e-06  3.53e-05   275s
  51   2.40683013e+05  2.40633987e+05  1.84e-06 6.56e-06  3.10e-05   277s
  52   2.40674832e+05  2.40634256e+05  1.56e-06 2.55e-06  2.57e-05   279s
  53   2.40669557e+05  2.40634351e+05  1.37e-06 2.43e-06  2.23e-05   281s
  54   2.40667825e+05  2.40634391e+05  1.46e-06 2.46e-06  2.12e-05   283s
  55   2.40666490e+05  2.40634404e+05  1.51e-06 2.43e-06  2.03e-05   284s
  56   2.40663325e+05  2.40634435e+05  1.40e-06 2.28e-06  1.83e-05   286s
  57   2.40659746e+05  2.40634472e+05  1.18e-06 1.93e-06  1.60e-05   287s
  58   2.40653816e+05  2.40634593e+05  8.35e-07 1.98e-05  1.22e-05   291s
  59   2.40650703e+05  2.40634624e+05  6.46e-07 1.56e-05  1.02e-05   293s
  60   2.40649152e+05  2.40634654e+05  5.80e-07 1.40e-05  9.17e-06   294s
  61   2.40647621e+05  2.40634699e+05  5.16e-07 9.71e-06  8.18e-06   301s
  62   2.40645201e+05  2.40634737e+05  4.29e-07 8.92e-06  6.62e-06   304s
  63   2.40643145e+05  2.40634732e+05  3.47e-07 7.44e-06  5.32e-06   309s
  64   2.40642344e+05  2.40634747e+05  3.15e-07 6.27e-06  4.81e-06   312s
  65   2.40641381e+05  2.40634755e+05  2.74e-07 5.74e-06  4.19e-06   314s
  66   2.40641124e+05  2.40634764e+05  2.63e-07 5.27e-06  4.02e-06   317s
  67   2.40640609e+05  2.40634784e+05  2.44e-07 4.40e-06  3.69e-06   323s
  68   2.40639720e+05  2.40634778e+05  2.04e-07 3.90e-06  3.13e-06   325s
  69   2.40637678e+05  2.40634800e+05  1.17e-07 3.71e-06  1.82e-06   329s
  70   2.40637615e+05  2.40634803e+05  1.14e-07 3.52e-06  1.78e-06   332s
  71   2.40637477e+05  2.40634809e+05  1.08e-07 3.00e-06  1.69e-06   335s
  72   2.40637165e+05  2.40634813e+05  9.60e-08 2.55e-06  1.49e-06   339s
  73   2.40636860e+05  2.40634816e+05  8.41e-08 2.34e-06  1.29e-06   342s
  74   2.40636759e+05  2.40634817e+05  7.97e-08 2.24e-06  1.23e-06   345s
  75   2.40636561e+05  2.40634818e+05  7.15e-08 2.17e-06  1.10e-06   347s
  76   2.40636443e+05  2.40634820e+05  6.64e-08 1.97e-06  1.03e-06   349s
  77   2.40635973e+05  2.40634822e+05  4.62e-08 1.80e-06  7.28e-07   352s
  78   2.40635865e+05  2.40634823e+05  4.16e-08 1.76e-06  6.60e-07   354s
  79   2.40635500e+05  2.40634825e+05  2.59e-08 1.56e-06  4.27e-07   358s
  80   2.40635231e+05  2.40634826e+05  1.48e-08 1.49e-06  2.56e-07   361s
  81   2.40635182e+05  2.40634834e+05  1.30e-08 1.18e-06  2.20e-07   364s
  82   2.40635158e+05  2.40634835e+05  1.23e-08 1.14e-06  2.05e-07   370s
  83   2.40635073e+05  2.40634836e+05  8.68e-09 1.64e-05  1.50e-07   379s
  84   2.40635044e+05  2.40634836e+05  7.55e-09 1.57e-05  1.31e-07   382s
  85   2.40635043e+05  2.40634837e+05  7.49e-09 1.51e-05  1.30e-07   385s
  86   2.40635039e+05  2.40634837e+05  7.36e-09 1.50e-05  1.28e-07   388s
  87   2.40635029e+05  2.40634837e+05  6.97e-09 1.49e-05  1.22e-07   390s
  88   2.40635017e+05  2.40634837e+05  6.47e-09 1.47e-05  1.14e-07   394s
  89   2.40635001e+05  2.40634838e+05  5.83e-09 1.72e-05  1.03e-07   399s
  90   2.40634979e+05  2.40634839e+05  4.93e-09 1.61e-05  8.84e-08   403s
  91   2.40634913e+05  2.40634839e+05  2.33e-09 1.56e-05  4.66e-08   407s
  92   2.40634893e+05  2.40634840e+05  1.65e-09 1.52e-05  3.40e-08   411s
  93   2.40634891e+05  2.40634840e+05  1.55e-09 1.41e-05  3.20e-08   414s
  94   2.40634880e+05  2.40634841e+05  1.10e-09 1.33e-05  2.46e-08   420s
  95   2.40634876e+05  2.40634842e+05  9.45e-10 1.22e-05  2.14e-08   423s
  96   2.40634870e+05  2.40634843e+05  6.99e-10 1.19e-05  1.71e-08   427s
  97   2.40634869e+05  2.40634843e+05  6.77e-10 1.17e-05  1.66e-08   431s
  98   2.40634868e+05  2.40634843e+05  6.49e-10 1.13e-05  1.60e-08   436s
  99   2.40634868e+05  2.40634844e+05  6.22e-10 1.07e-05  1.52e-08   439s
 100   2.40634866e+05  2.40634844e+05  5.56e-10 1.02e-05  1.40e-08   441s

Barrier solved model in 100 iterations and 441.25 seconds
Optimal objective 2.40634866e+05


Root crossover log...

  436502 DPushes remaining with DInf 0.0000000e+00               445s
  434392 DPushes remaining with DInf 0.0000000e+00               450s
  432292 DPushes remaining with DInf 0.0000000e+00               455s
  430092 DPushes remaining with DInf 0.0000000e+00               460s
  427992 DPushes remaining with DInf 0.0000000e+00               465s
  425992 DPushes remaining with DInf 0.0000000e+00               470s
Concurrent spin time: 145.08s (can be avoided by choosing Method=3)

Solved with primal simplex

Root relaxation: objective 2.406349e+05, 129225 iterations, 285.48 seconds
Total elapsed time = 485.51s

    Nodes    |    Current Node    |     Objective Bounds      |     Work
 Expl Unexpl |  Obj  Depth IntInf | Incumbent    BestBd   Gap | It/Node Time

     0     0 240634.852    0 82672 255241.208 240634.852  5.72%     -  486s

Explored 1 nodes (213779 simplex iterations) in 486.68 seconds
Thread count was 12 (of 12 available processors)

Solution count 1: 255241 

Optimal solution found (tolerance 6.00e-02)
Best objective 2.552412079979e+05, best bound 2.406348521815e+05, gap 5.7226%
/home/balderrama/Micro-Grids/MicroGrids/Results.py:145: FutureWarning: Creating a DatetimeIndex by passing range endpoints is deprecated.  Use `pandas.date_range` instead.
  freq=(str(instance.Delta_Time()) + 'h')) # Creation of an index with a start date and a frequency
True
Renewable 1 nominal capacity is 20.8 kW
Generator 1 nominal capacity is 30.0 kW
Generator 2 nominal capacity is 0.0 kW
Battery nominal capacity is 66.9 kWh
NPC is 255.0 Thousand USD
The LCOE is 0.328 USD/kWh
27.1 % Renewable Penetration
0.0 % of energy curtail
7.4 % Battery usage
The optimization take 739.0 segundos
